
50
13944

529 329
1284 984
1260 960
1119 919
990 790
1176 876
201 1
827 627
448 248
931 731
633 433
761 561
743 543
777 577
1128 828
1182 982
546 346
1007 807
1090 890
593 393
324 124
798 498
965 765
725 525
385 185
906 706
525 325
1087 887
369 169
894 594
586 386
1185 985
339 139
1081 881
618 418
672 372
409 209
695 495
1230 930
1200 1000
1140 940
912 612
437 237
708 508
850 650
496 296
1187 987
285 85
435 235
504 204
